
Gurobi 11.0.0 (linux64) logging started Sun Mar 10 21:23:54 2024

Set parameter LogFile to value "gurobi_out/log/Mar_10_fir_6_3.log"
Gurobi Optimizer version 11.0.0 build v11.0.0rc2 (linux64 - "CentOS Linux 7 (Core)")

CPU model: Intel Xeon E3-12xx v2 (Ivy Bridge), instruction set [SSE2|AVX]
Thread count: 24 physical cores, 24 logical processors, using up to 24 threads

Optimize a model with 354 rows, 354 columns and 881 nonzeros
Model fingerprint: 0x853d57ca
Variable types: 254 continuous, 100 integer (50 binary)
Coefficient statistics:
  Matrix range     [1e+00, 1e+02]
  Objective range  [1e-05, 1e+00]
  Bounds range     [1e+00, 1e+00]
  RHS range        [1e+00, 4e+00]
Found heuristic solution: objective -0.0000300
Presolve removed 229 rows and 210 columns
Presolve time: 0.00s
Presolved: 125 rows, 144 columns, 397 nonzeros
Variable types: 84 continuous, 60 integer (24 binary)

Root relaxation: objective 6.665500e-01, 79 iterations, 0.00 seconds (0.00 work units)

    Nodes    |    Current Node    |     Objective Bounds      |     Work
 Expl Unexpl |  Obj  Depth IntInf | Incumbent    BestBd   Gap | It/Node Time

     0     0    0.66655    0   16   -0.00003    0.66655      -     -    0s
     0     0    0.49990    0   19   -0.00003    0.49990      -     -    0s
H    0     0                      -0.0000300    0.49990      -     -    0s
     0     0    0.49990    0   18   -0.00003    0.49990      -     -    0s
H    0     0                       0.2498800    0.49990   100%     -    0s
H    0     0                       0.3331833    0.49990  50.0%     -    0s
     0     0    0.49987    0   20    0.33318    0.49987  50.0%     -    0s
     0     0    0.49986    0   22    0.33318    0.49986  50.0%     -    0s
H    0     0                       0.3331933    0.49984  50.0%     -    0s
     0     0    0.49984    0   22    0.33319    0.49984  50.0%     -    0s
     0     0    0.49983    0   22    0.33319    0.49983  50.0%     -    0s
     0     0    0.43924    0   31    0.33319    0.43924  31.8%     -    0s
     0     0    0.41738    0   31    0.33319    0.41738  25.3%     -    0s
     0     0    0.33349    0   27    0.33319    0.33349  0.09%     -    0s
     0     0    0.33349    0   19    0.33319    0.33349  0.09%     -    0s
     0     0    0.33348    0   18    0.33319    0.33348  0.09%     -    0s
     0     0    0.33348    0   25    0.33319    0.33348  0.09%     -    0s
     0     0    0.33348    0   21    0.33319    0.33348  0.09%     -    0s
     0     0    0.33348    0   21    0.33319    0.33348  0.09%     -    0s
     0     0    0.33347    0   19    0.33319    0.33347  0.08%     -    0s
     0     0    0.33347    0   19    0.33319    0.33347  0.08%     -    0s
     0     0    0.33347    0   26    0.33319    0.33347  0.08%     -    0s
     0     0    0.33347    0   22    0.33319    0.33347  0.08%     -    0s
     0     2    0.33347    0   20    0.33319    0.33347  0.08%     -    0s

Cutting planes:
  Cover: 5
  Implied bound: 14
  Clique: 1
  MIR: 18
  StrongCG: 5
  RLT: 10
  BQP: 1

Explored 21 nodes (592 simplex iterations) in 0.15 seconds (0.03 work units)
Thread count was 24 (of 24 available processors)

Solution count 5: 0.333193 0.333183 0.24988 ... -3e-05

Optimal solution found (tolerance 1.00e-04)
Best objective 3.331933333333e-01, best bound 3.332033347333e-01, gap 0.0030%
Warning: linear constraint 103 and linear constraint 104 have the same name "PathConstr3_nopl"
